% DATA BELOW HERE
Teachers = {T1, T2, T3};
Days = {Lun,Mar,Mer,Gio,Ven };
Slots = {h08,h09,h10,h11,h12,h13,h14,h15,h16,h17,h18,Free};
num_teachers = 3;
num_slots = 11;
max_lesson_duration = 4;
num_days = 5;

% The slots a teacher is available to give their lesson
teacher_availability = [|{3,4},        {1,2,3},    {4,5,8,9},    {5,6,7,8,9,10,11}, {4,5,6,8,9,10,11}                    
                        |{4,5},        {9,10,11},  {1,2,3,6,7},  {1,2,3,4,5,8,9,10}, {1,2,3,4,5}                
                        |{1, 3, 4, 6}, {5,6,7},    {8,9,10},     {2,3,4,5,7,8,6},    1..11 |];           


% The duration of each teacher's lesson
lesson_durations = [3,4,1];


% The amount of lessons of each teacher
lessons_per_week = [1,1,1];


